; benchmark generated from python API
(set-info :status unknown)
(declare-fun A_3 () Real)
(declare-fun S_2 () Real)
(declare-fun S_4 () Real)
(declare-fun S_0 () Real)
(declare-fun L_1 () Real)
(declare-fun S_3 () Real)
(declare-fun S_1 () Real)
(declare-fun A_0 () Real)
(declare-fun L_0 () Real)
(declare-fun L0 () Real)
(declare-fun A_1 () Real)
(declare-fun L_3 () Real)
(declare-fun L_2 () Real)
(declare-fun A_2 () Real)
(declare-fun A_4 () Real)
(assert
 (let (($x2399 (<= (+ L_1 (* (- (/ 1.0 2.0)) S_3) (* (/ 1.0 2.0) S_0) S_4 (* (- 1.0) A_3)) 0.0)))
 (let (($x5068 (<= (+ L_0 (* (- 1.0) A_0) (* (- 1.0) S_3) (* 2.0 S_1)) 0.0)))
 (let (($x6289 (<= (+ S_0 (* (- 1.0) S_2)) (- 5.0))))
 (let (($x37 (>= L0 0.0)))
 (let (($x3910 (<= (+ L_0 (* (- 1.0) A_0) S_0) 0.0)))
 (let ((?x309 (* (- 1.0) S_1)))
 (let ((?x4221 (* (- (/ 3.0 2.0)) A_3)))
 (let ((?x4224 (* (/ 3.0 2.0) A_1)))
 (let ((?x4217 (* (/ 3.0 2.0) L_3)))
 (let ((?x4227 (* (- (/ 3.0 2.0)) L_1)))
 (let (($x74 (= L_3 L_2)))
 (let ((?x1068 (* (- 1.0) S_0)))
 (let ((?x3462 (* (- 5.0) A_3)))
 (let ((?x4346 (* 5.0 L_3)))
 (let ((?x5528 (* 5.0 A_2)))
 (let ((?x2021 (* (- 5.0) L_2)))
 (let (($x2816 (>= S_4 (+ A_3 (* (- 1.0) L_1)))))
 (let ((?x3125 (* (- 3.0) A_3)))
 (let ((?x5823 (* 3.0 L_3)))
 (let ((?x5853 (* 3.0 A_2)))
 (let ((?x869 (* (- 3.0) L_2)))
 (let ((?x5020 (* (- 2.0) A_3)))
 (let ((?x2537 (* 2.0 L_3)))
 (let ((?x2424 (* 2.0 A_2)))
 (let ((?x5269 (* (- 2.0) L_2)))
 (let ((?x4102 (* (- (/ 1.0 2.0)) A_3)))
 (let ((?x4009 (* (/ 1.0 2.0) A_1)))
 (let ((?x3846 (* (/ 1.0 2.0) L_3)))
 (let ((?x4006 (* (- (/ 1.0 2.0)) L_1)))
 (let ((?x4486 (* (/ 1.0 2.0) A_3)))
 (let ((?x4337 (* (- (/ 1.0 2.0)) A_1)))
 (let ((?x525 (* (- 1.0) S_3)))
 (let ((?x3632 (* (- (/ 1.0 2.0)) L_3)))
 (let ((?x4463 (* (/ 1.0 2.0) L_1)))
 (let (($x54 (= L_1 L_0)))
 (let ((?x519 (* (- 1.0) S_4)))
 (let ((?x381 (* (- 1.0) A_1)))
 (let ((?x543 (* (- 1.0) L_3)))
 (let (($x4537 (<= (+ L_0 (* (- 1.0) A_0) (* (- (/ 1.0 2.0)) S_4) (* (/ 3.0 2.0) S_1)) 0.0)))
 (let ((?x5396 (* (- 2.0) A_2)))
 (let ((?x2126 (* 2.0 A_1)))
 (let ((?x7919 (* (- 2.0) L_1)))
 (let ((?x5533 (* 2.0 L_2)))
 (let (($x64 (= L_2 L_1)))
 (let ((?x1972 (* (- 3.0) A_2)))
 (let ((?x2137 (* 3.0 A_1)))
 (let ((?x3196 (* (- 3.0) L_1)))
 (let ((?x3337 (* 3.0 L_2)))
 (let (($x9240 (or $x54 (<= (+ (* (- 1.0) L_2) L_1 ?x381 A_2 S_1 ?x525) 0.0))))
 (let (($x9792 (or $x74 (<= (+ ?x4006 ?x3846 (* (- 1.0) A_0) L_0 ?x4009 ?x4102 S_1) 0.0))))
 (let (($x2922 (<= (+ (* (- 1.0) L_1) L_3 A_1 (* (- 1.0) A_3) ?x1068 S_1) 0.0)))
 (let (($x16464 (or $x74 (<= (+ (* (- 1.0) L_2) A_2 L_3 (* (- 1.0) A_3)) (- 5.0)))))
 (let (($x16455 (or $x64 (<= (+ L_2 (* (- 1.0) L_1) A_1 (* (- 1.0) A_2)) (- 5.0)))))
 (let (($x12744 (or $x74 (<= (+ ?x5269 (* (- 1.0) A_0) L_0 ?x2424 ?x2537 ?x5020 S_2) 0.0))))
 (let (($x960 (<= (+ ?x5533 ?x525 ?x5396 (* (- 2.0) L_3) (* 2.0 A_3) S_0) 0.0)))
 (let (($x1797 (= L_2 L_0)))
 (let (($x1263 (not (= L_0 L_1))))
 (let (($x1157 (not (= L_2 L_3))))
 (let (($x2317 (<= (+ ?x5269 (* 2.0 L_1) (* (- 2.0) A_1) ?x2424 S_0 ?x525) 0.0)))
 (let ((?x3821 (* (/ 3.0 2.0) A_3)))
 (let ((?x3550 (* (- (/ 3.0 2.0)) A_1)))
 (let ((?x3803 (* (- (/ 3.0 2.0)) L_3)))
 (let ((?x3551 (* (/ 3.0 2.0) L_1)))
 (let (($x861 (<= L_1 L_0)))
 (let (($x3507 (or $x54 (<= (+ ?x4463 ?x3632 ?x4337 ?x4486 S_0 (* (- 1.0) S_2)) 0.0))))
 (let ((?x266 (* (- 1.0) A_3)))
 (let ((?x3136 (* (- 1.0) A_0)))
 (let ((?x213 (* (- 1.0) L_1)))
 (let (($x8120 (or (<= (+ L_0 ?x3136 (* (- 2.0) S_4) (* 3.0 S_2)) 0.0) $x2816)))
 (let (($x13525 (or $x74 (<= (+ ?x4227 ?x4217 ?x4224 ?x4221 S_4 (* (- 1.0) S_2)) 0.0))))
 (let ((?x442 (* (- 4.0) A_3)))
 (let ((?x1676 (* 4.0 L_3)))
 (let ((?x2844 (* 4.0 A_2)))
 (let ((?x1590 (* (- 4.0) L_2)))
 (let (($x16107 (or $x74 (<= (+ ?x869 ?x5853 ?x5823 ?x3125 S_4 (* (- 1.0) S_2)) 0.0))))
 (let ((?x4253 (* (- (/ 5.0 2.0)) A_3)))
 (let ((?x4305 (* (/ 5.0 2.0) A_1)))
 (let ((?x4249 (* (/ 5.0 2.0) L_3)))
 (let ((?x3440 (* (- (/ 5.0 2.0)) L_1)))
 (let ((?x4988 (* (- 4.0) A_2)))
 (let ((?x1807 (* 4.0 A_1)))
 (let ((?x4566 (* (- 4.0) L_1)))
 (let ((?x325 (* 4.0 L_2)))
 (let (($x12729 (or $x64 (<= (+ ?x3337 ?x3196 ?x2137 ?x1972 S_4 (* (- 1.0) S_2)) 0.0))))
 (let ((?x2630 (* (- 5.0) A_2)))
 (let ((?x1925 (* 5.0 A_1)))
 (let ((?x2598 (* (- 5.0) L_1)))
 (let ((?x2148 (* 5.0 L_2)))
 (let (($x16178 (or $x64 (<= (+ L_2 L_0 ?x213 A_1 (* (- 1.0) A_2) ?x3136 S_1) 0.0))))
 (let (($x597 (or (<= (+ ?x2148 (* (- 5.0) L_0) ?x1925 ?x2630 ?x1068 S_4) 0.0) $x1263 $x1797)))
 (let (($x5405 (<= (+ L_2 (* (- 1.0) A_2) ?x543 A_3 S_0 (* (- 1.0) S_2)) 0.0)))
 (let (($x2304 (or $x74 (<= (+ ?x213 L_3 S_3 A_1 ?x266 (* (- 1.0) S_2)) 0.0))))
 (let (($x1367 (or $x74 (<= (+ (* (- 1.0) L_2) ?x3136 L_0 A_2 L_3 ?x266 S_1) 0.0))))
 (let (($x6946 (<= (+ (* (- 3.0) L_0) ?x5853 ?x5823 ?x3125 S_4 (* (- 1.0) S_2)) 0.0)))
 (let (($x2342 (= L_3 L_0)))
 (let (($x1326 (not (= L_0 L_2))))
 (let (($x13541 (or $x74 $x861 (= (+ L_1 ?x5269 ?x2424 L_3 ?x266 ?x381) 0.0) (not (<= (+ ?x213 ?x5533 ?x5396 ?x543 A_3 A_1) 0.0)))))
 (let (($x3939 (<= (+ L_1 (* (- 1.0) L_2) A_2 S_0 ?x381 (* (- 1.0) S_2)) 0.0)))
 (let (($x1024 (or $x74 (not (<= L_3 L_2)))))
 (let (($x3247 (or $x1263 $x1797 (<= (+ L_2 ?x525 (* (- 1.0) A_2) ?x543 A_3 S_1) 0.0))))
 (let (($x125 (>= A_4 A_3)))
 (let (($x1482 (or $x54 (not $x861))))
 (let (($x860 (not (<= L_2 L_1))))
 (let (($x450 (or $x64 $x860)))
 (let ((?x517 (* (- 1.0) L_2)))
 (let ((?x518 (+ A_2 ?x517)))
 (let (($x627 (<= ?x518 S_4)))
 (let ((?x523 (* (- 1.0) L_0)))
 (let ((?x792 (+ A_0 ?x523)))
 (let (($x787 (<= ?x792 S_3)))
 (let (($x549 (not (<= (+ A_1 ?x213) S_3))))
 (let (($x124 (>= A_3 A_2)))
 (let (($x123 (>= A_2 A_1)))
 (let (($x117 (>= S_3 S_2)))
 (let (($x114 (>= S_2 S_1)))
 (let (($x36 (>= L_0 L0)))
 (let (($x111 (>= S_1 S_0)))
 (let (($x2689 (<= S_4 (+ A_4 ?x517))))
 (and $x2689 $x111 $x36 $x114 $x117 $x123 $x124 $x549 $x787 $x627 $x450 $x1482 $x125 (or $x54 (<= (+ L_1 ?x525 ?x543 A_3 S_0 ?x381) 0.0)) $x3247 $x1024 (or $x54 $x3939) $x13541 (or $x1326 $x2342 (<= (+ ?x523 A_2 L_3 ?x266) (- 5.0))) (or $x1326 $x2342 $x6946) (or $x1157 $x64 (<= (+ ?x213 L_2 ?x5396 A_3 A_1) 0.0)) $x1367 $x2304 (or $x74 (<= (+ ?x4227 ?x4217 ?x3136 S_3 L_0 ?x4224 ?x4221) 0.0)) (or $x64 (<= (+ ?x213 ?x5533 ?x5396 ?x543 A_3 A_1) 0.0)) (or $x1263 $x1797 $x5405) $x597 $x16178 (or $x64 (<= (+ ?x2148 ?x2598 ?x1925 ?x2630 ?x1068 S_4) 0.0)) $x12729 (or $x64 (<= (+ ?x325 ?x4566 ?x1807 ?x4988 S_4 ?x309) 0.0)) (or $x64 (<= (+ ?x325 L_0 ?x4566 ?x1807 ?x4988 S_4 ?x3136) 0.0)) (or $x74 (<= (+ ?x3440 ?x4249 ?x4305 ?x4253 ?x1068 S_4) 0.0)) (or $x74 (<= (+ ?x1590 ?x3136 L_0 ?x2844 ?x1676 ?x442 S_4) 0.0)) (or $x64 (<= (+ ?x5533 L_0 ?x7919 ?x2126 ?x5396 S_2 ?x3136) 0.0)) (or $x64 (<= (+ ?x5533 ?x7919 ?x2126 ?x5396 S_2 ?x309) 0.0)) (or $x74 (<= (+ ?x213 L_3 ?x525 A_1 ?x266 S_4) 0.0)) (or $x74 (<= (+ ?x213 L_3 A_1 ?x266 S_2 ?x309) 0.0)) (or $x74 (<= (+ ?x7919 ?x2537 ?x2126 ?x5020 S_4 ?x309) 0.0)) $x16107 (or $x74 (<= (+ ?x1590 ?x2844 ?x1676 ?x442 S_4 ?x309) 0.0)) (or $x74 (<= (+ ?x7919 ?x2537 ?x3136 L_0 ?x2126 ?x5020 S_4) 0.0)) $x13525 $x8120 (or (<= (+ (* (- 2.0) S_4) (* 3.0 S_2) ?x309) 0.0) $x2816) (or $x54 (<= (+ ?x4463 ?x3632 ?x4337 ?x4486 ?x519 S_2) 0.0)) (or $x74 (<= (+ ?x213 L_3 ?x3136 L_0 A_1 ?x266 S_2) 0.0)) $x3507 (or $x861 (<= (+ ?x3551 ?x3803 ?x3550 ?x3821 S_0 ?x519) 0.0)) (or $x54 $x2317) (or $x64 $x1157 (<= (+ ?x525 ?x5396 (* 2.0 A_3) S_0) 0.0)) (or $x1263 $x1797 $x960) $x12744 (or $x74 (<= (+ ?x5269 ?x2424 ?x2537 ?x5020 S_2 ?x309) 0.0)) (or $x74 (<= (+ ?x5269 ?x525 ?x2424 ?x2537 ?x5020 S_4) 0.0)) (or $x64 (<= (+ ?x5533 ?x7919 ?x2126 ?x5396 S_4 ?x525) 0.0)) (or (<= (+ ?x519 S_2) (- 5.0)) $x2816) $x16455 $x16464 (or $x74 $x2922) $x9792 (or $x74 (<= (+ ?x4227 ?x4217 ?x4224 ?x4221 ?x1068 S_2) 0.0)) (or $x74 (<= (+ ?x7919 ?x2537 S_3 ?x2126 ?x5020 ?x1068) 0.0)) (or (<= (+ ?x1068 ?x519 (* 2.0 S_1)) 0.0) $x2816) $x9240 (or $x64 (<= (+ ?x3337 ?x3196 ?x2137 ?x1972 ?x1068 S_2) 0.0)) (or $x64 (<= (+ ?x5533 ?x7919 ?x2126 ?x5396 ?x1068 S_1) 0.0)) (or $x4537 $x2816) (or $x54 (<= (+ L_1 ?x543 ?x381 A_3 ?x519 S_1) 0.0)) (or $x54 (<= (+ ?x4463 ?x3632 ?x525 ?x4337 ?x4486 S_1) 0.0)) (or $x74 (<= (+ ?x4006 ?x3846 ?x4009 ?x4102) (- 5.0))) (or (<= (+ S_0 ?x519) (- 15.0)) $x2816) (or (<= (+ (* (- (/ 1.0 2.0)) S_4) (* (/ 1.0 2.0) S_1)) (- 5.0)) $x2816) (or $x74 (<= (+ ?x5269 ?x2424 ?x2537 ?x5020 ?x1068 S_1) 0.0)) (or $x74 (<= (+ ?x869 ?x5853 ?x5823 ?x3125 ?x1068 S_2) 0.0)) (or (<= (+ ?x1068 (* (- 3.0) S_4) (* 4.0 S_2)) 0.0) $x2816) (or $x74 (<= (+ ?x2021 ?x5528 ?x4346 ?x3462 ?x1068 S_4) 0.0)) (or $x74 (<= (+ ?x4227 ?x4217 S_3 ?x4224 ?x4221 ?x309) 0.0)) $x3910 $x37 $x6289 (<= (+ (* (- 2.0) S_3) S_0 S_4) 0.0) (<= (+ ?x525 S_1) (- 5.0)) (<= (+ (* (- 2.0) S_3) ?x1068 (* 3.0 S_1)) 0.0) (<= (+ (* (- 3.0) S_3) S_4 (* 2.0 S_1)) 0.0) (<= (+ S_3 (* 2.0 S_0) (* (- 3.0) S_2)) 0.0) (<= (+ (* (- (/ 1.0 2.0)) S_3) (* (/ 1.0 2.0) S_0)) (- 5.0)) (<= (+ (* 3.0 S_0) S_4 (* (- 4.0) S_2)) 0.0) $x5068 (<= (+ L_1 ?x525 S_4 ?x266 S_1) 0.0) $x2399 (<= (+ L_1 S_0 S_4 (* (- 1.0) S_2) ?x266) 0.0)))))))))))))))))))))))))))))))))))))))))))))))))))))))))))))))))))))))))))))))))))))))))))))))))))))))))))))))))))))))))
(check-sat)
